c description: Random 3-CNF over 16 variables and 68 clauses
c generator: CNFgen (0.9.2)
c copyright: (C) 2012-2022 Massimo Lauria <massimo.lauria@uniroma1.it>
c url: https://massimolauria.net/cnfgen
c command line: cnfgen --output CNF_4.28/16_bit_68_642.cnf randkcnf 3 16 68
c
p cnf 16 68
1 3 11 0
-3 -14 -15 0
2 13 -16 0
-4 -6 -9 0
2 -5 13 0
5 6 16 0
-1 13 14 0
-3 -6 -8 0
-4 6 8 0
-5 10 -11 0
-4 -7 15 0
9 -11 -16 0
1 -4 7 0
-9 -10 13 0
-10 -12 -13 0
5 9 -12 0
2 -10 15 0
-7 -8 13 0
-4 -6 -14 0
-4 7 -11 0
-2 3 -6 0
-4 8 -12 0
-4 -9 16 0
7 -13 -16 0
2 -7 -15 0
-2 9 -12 0
-2 -3 7 0
2 -6 13 0
-10 -15 -16 0
6 -11 -14 0
-3 11 12 0
2 7 -13 0
10 13 -15 0
8 -11 14 0
2 -6 -8 0
5 -9 12 0
9 -13 -14 0
5 11 -13 0
-9 11 -14 0
5 -9 -15 0
-7 -8 -12 0
-1 -14 16 0
7 -8 11 0
1 -12 -14 0
-6 14 -15 0
-1 -7 12 0
3 -4 15 0
-10 -11 16 0
-1 -3 -8 0
8 11 -14 0
-10 11 -16 0
3 -4 -16 0
-6 13 15 0
2 11 -12 0
2 -5 -8 0
-4 -8 10 0
1 4 -8 0
-10 11 15 0
-1 8 -9 0
1 -7 13 0
1 -2 -8 0
-6 12 15 0
-5 11 14 0
-2 -4 -5 0
-5 -13 -14 0
8 10 15 0
-7 -9 11 0
1 -3 -5 0
